(set-info :smt-lib-version 2.6)
(set-logic QF_UFLRA)
(set-info :source |
MathSat group

|)
(set-info :category "random")
(set-info :status unsat)
(declare-fun x0 () Real)
(declare-fun x1 () Real)
(declare-fun x2 () Real)
(declare-fun x3 () Real)
(declare-fun x4 () Real)
(declare-fun x5 () Real)
(declare-fun x6 () Real)
(declare-fun x7 () Real)
(declare-fun x8 () Real)
(declare-fun x9 () Real)
(declare-fun x10 () Real)
(declare-fun x11 () Real)
(declare-fun x12 () Real)
(declare-fun x13 () Real)
(declare-fun x14 () Real)
(declare-fun x15 () Real)
(declare-fun x16 () Real)
(declare-fun x17 () Real)
(declare-fun x18 () Real)
(declare-fun x19 () Real)
(declare-fun x20 () Real)
(declare-fun x21 () Real)
(declare-fun x22 () Real)
(declare-fun x23 () Real)
(declare-fun x24 () Real)
(declare-fun x25 () Real)
(declare-fun x26 () Real)
(declare-fun x27 () Real)
(declare-fun x28 () Real)
(declare-fun x29 () Real)
(declare-fun f0_1 (Real) Real)
(declare-fun f0_2 (Real Real) Real)
(declare-fun f0_3 (Real Real Real) Real)
(declare-fun f0_4 (Real Real Real Real) Real)
(declare-fun P0 () Bool)
(declare-fun P1 () Bool)
(declare-fun P2 () Bool)
(declare-fun P3 () Bool)
(declare-fun P4 () Bool)
(declare-fun P5 () Bool)
(declare-fun P6 () Bool)
(declare-fun P7 () Bool)
(declare-fun P8 () Bool)
(declare-fun P9 () Bool)
(declare-fun P10 () Bool)
(declare-fun P11 () Bool)
(declare-fun P12 () Bool)
(declare-fun P13 () Bool)
(declare-fun P14 () Bool)
(declare-fun P15 () Bool)
(declare-fun P16 () Bool)
(declare-fun P17 () Bool)
(declare-fun P18 () Bool)
(declare-fun P19 () Bool)
(declare-fun P20 () Bool)
(declare-fun P21 () Bool)
(declare-fun P22 () Bool)
(declare-fun P23 () Bool)
(declare-fun P24 () Bool)
(declare-fun P25 () Bool)
(declare-fun P26 () Bool)
(declare-fun P27 () Bool)
(declare-fun P28 () Bool)
(declare-fun P29 () Bool)
(assert (let ((?v_14 (* 30 x2)) (?v_79 (<= (- (+ (* 41 x28) (* 22 x4)) (* 23 x24)) 23)) (?v_101 (distinct (- (- (* 29 x29) (* 17 x22)) (* 10 x1)) 14)) (?v_98 (<= (- (- (* 30 x4) (* 9 x18)) (* 38 x13)) 40)) (?v_45 (< (- (- (* 41 x10) (* 4 x21)) (* 42 x18)) 10)) (?v_99 (distinct (- (+ (* 6 x26) (* 6 x24)) (* 22 x12)) 17)) (?v_16 (= (- (+ (* 8 x17) (* 30 x20)) (* 29 x6)) 18)) (?v_12 (* 38 x24))) (let ((?v_10 (< (+ (- (* 38 x25) (* 32 x20)) ?v_12) 15)) (?v_19 (<= (+ (- ?v_12 (* 16 x10)) (* 40 x25)) 35)) (?v_26 (< (- (- (* 23 x5) (* 2 x24)) ?v_14) 7)) (?v_120 (< (- (- (* 38 x21) (* 19 x5)) (* 36 x21)) 1)) (?v_150 (< (+ (- (* 8 x10) (* 16 x4)) (* 40 x23)) 0)) (?v_51 (distinct (f0_1 x1) (f0_2 x3 x12))) (?v_75 (f0_1 x22))) (let ((?v_125 (distinct ?v_75 (f0_2 x6 x12))) (?v_31 (f0_1 x3))) (let ((?v_100 (distinct ?v_31 x6)) (?v_9 (distinct x15 x3)) (?v_87 (= (f0_1 x12) ?v_31)) (?v_18 (f0_1 x27))) (let ((?v_49 (= (f0_2 x14 x23) ?v_18)) (?v_53 (= (f0_2 x10 x2) (f0_1 x13))) (?v_85 (f0_1 x5))) (let ((?v_23 (distinct ?v_85 (f0_1 x15))) (?v_60 (= (f0_2 x17 x6) x16)) (?v_27 (distinct (f0_2 x5 x28) x16)) (?v_41 (= (f0_2 x3 x9) (f0_1 x2))) (?v_63 (distinct (f0_1 x25) (f0_2 x21 x7))) (?v_40 (f0_1 x8))) (let ((?v_43 (= x24 ?v_40)) (?v_20 (f0_1 x7))) (let ((?v_156 (= x0 ?v_20)) (?v_21 (distinct (f0_2 x24 x4) ?v_31)) (?v_58 (distinct (f0_2 x6 x6) (f0_2 x4 x2))) (?v_11 (= (f0_2 x4 x17) x16)) (?v_28 (distinct (f0_2 x5 x27) x24)) (?v_83 (= x19 (f0_1 x24))) (?v_90 (distinct x4 ?v_75)) (?v_68 (distinct ?v_20 (f0_2 x17 x21))) (?v_147 (distinct (f0_2 x0 x15) (f0_2 x23 x7))) (?v_97 (= (f0_2 x13 x6) x21)) (?v_44 (= (f0_2 x3 x20) ?v_18)) (?v_46 (distinct x5 (f0_1 x6))) (?v_86 (= ?v_85 x22)) (?v_56 (distinct (f0_2 x2 x24) (f0_2 x5 x13))) (?v_80 (distinct (f0_1 x28) (f0_2 x7 x1))) (?v_38 (distinct ?v_18 x24)) (?v_89 (= ?v_40 (f0_2 x28 x22))) (?v_122 (not ?v_63)) (?v_47 (not ?v_23)) (?v_3 (not P6)) (?v_61 (not ?v_98)) (?v_92 (not P26)) (?v_110 (not P27)) (?v_2 (not ?v_45)) (?v_5 (not P8)) (?v_4 (not ?v_41)) (?v_151 (not P16)) (?v_24 (not ?v_26)) (?v_6 (not ?v_9)) (?v_73 (not P20))) (let ((?v_34 (not ?v_56)) (?v_78 (not P3)) (?v_66 (not ?v_38)) (?v_64 (not ?v_53)) (?v_15 (not P28)) (?v_33 (not ?v_10)) (?v_13 (not ?v_16)) (?v_93 (not P18)) (?v_35 (not P23)) (?v_22 (not P12)) (?v_65 (not ?v_68)) (?v_96 (not ?v_21)) (?v_102 (not P22)) (?v_140 (not ?v_11)) (?v_71 (not P25)) (?v_123 (not ?v_125)) (?v_94 (not ?v_44)) (?v_127 (not P15)) (?v_50 (not ?v_49)) (?v_149 (not ?v_156)) (?v_108 (not ?v_28)) (?v_88 (not P5)) (?v_145 (not P24)) (?v_72 (not ?v_80)) (?v_148 (not ?v_19)) (?v_70 (not ?v_60)) (?v_112 (not ?v_43)) (?v_130 (not ?v_150)) (?v_111 (not P2)) (?v_67 (not ?v_87)) (?v_52 (not P7)) (?v_142 (not P21)) (?v_95 (not P11)) (?v_77 (not P13)) (?v_132 (not P10)) (?v_116 (not P29)) (?v_121 (not ?v_27)) (?v_124 (not P9)) (?v_146 (not P14)) (?v_81 (not ?v_79)) (?v_135 (not ?v_89)) (?v_103 (not ?v_90)) (?v_104 (not ?v_51)) (?v_143 (not ?v_58)) (?v_114 (not ?v_99)) (?v_105 (not ?v_100)) (?v_133 (not ?v_46)) (?v_157 (not P19)) (?v_118 (not P4))) (let ((?v_153 (or ?v_68 ?v_111)) (?v_137 (not ?v_101)) (?v_128 (not ?v_120)) (?v_126 (not ?v_83)) (?v_139 (not P17)) (?v_144 (not ?v_97)) (?v_158 (or ?v_58 ?v_124)) (?v_138 (not P1)) (?v_141 (not ?v_86)) (?v_152 (not ?v_147)) (?v_0 (<= (+ (* 36 x13) (* 31 x23) (* 26 x27)) 24)) (?v_37 (< (+ (* 3 x18) (* 5 x21) (* 24 x6)) 42))) (let ((?v_39 (not ?v_37)) (?v_69 (distinct (+ (* 6 x27) (* 12 x4)) 35))) (let ((?v_84 (not ?v_69)) (?v_119 (not ?v_0)) (?v_1 (<= (+ (- (* (- 8) x10) (* 27 x29)) (* 38 x10)) 5)) (?v_7 (< (- (+ (* (- 21) x0) (* 5 x2)) (* 13 x25)) 19))) (let ((?v_42 (not ?v_1)) (?v_17 (< (- (+ (* (- 33) x19) (* 15 x2)) (* 4 x22)) (- 39)))) (let ((?v_109 (not ?v_17)) (?v_32 (distinct (+ (* (- 2) x4) (* 32 x16) (* 21 x29)) (- 30))) (?v_8 (<= (- (- (* 21 x7) (* 12 x7)) (* 5 x5)) (- 10)))) (let ((?v_36 (not ?v_8)) (?v_25 (= (+ (* (- 4) x23) (* 30 x22) (* 20 x11)) (- 43)))) (let ((?v_29 (not ?v_25)) (?v_107 (< (- (+ (* 29 x4) (* 21 x15)) (* 31 x11)) (- 7)))) (let ((?v_54 (not ?v_107)) (?v_57 (distinct (+ (* (- 21) x18) (* 22 x17) (* 42 x19)) 32))) (let ((?v_131 (not ?v_57)) (?v_59 (<= (+ (* (- 28) x11) (* 4 x15) (* 41 x3)) 0)) (?v_129 (< (+ (* (- 28) x2) (* 27 x2) (* 22 x19)) 18))) (let ((?v_155 (not ?v_129)) (?v_55 (distinct (- (+ ?v_14 (* 27 x5)) (* 36 x9)) (- 2))) (?v_30 (< (- (- (* 16 x11) (* 19 x27)) (* 35 x20)) (- 43)))) (let ((?v_48 (not ?v_30)) (?v_82 (< (+ (* (- 26) x11) (* 22 x11) (* 34 x21)) (- 32)))) (let ((?v_62 (not ?v_82)) (?v_76 (not ?v_59)) (?v_115 (< (- (- (* (- 19) x7) (* 31 x8)) (* 37 x21)) (- 10)))) (let ((?v_91 (not ?v_115)) (?v_106 (<= (- (+ (* (- 12) x4) (* 23 x21)) (* 36 x1)) 3))) (let ((?v_74 (not ?v_106)) (?v_117 (< (- (+ (* (- 23) x2) (* 38 x11)) (* 39 x2)) (- 34)))) (let ((?v_113 (not ?v_117)) (?v_134 (not ?v_55)) (?v_154 (not ?v_7)) (?v_136 (or ?v_42 ?v_108))) (and (and (and (and (and (and (and (and (and (and (and (and (and (and (and (and (and (and (and (and (and (and (and (and (and (and (and (and (and (and (and (and (and (and (and (and (and (and (and (and (and (and (and (and (and (and (and (and (and (and (and (and (and (and (and (and (and (and (and (and (and (and (and (and (and (and (and (and (and (and (and (and (and (and (and (and (and (and (and (and (and (and (and (and (and (and (and (and (and (and (and (and (and (and (and (and (and (and (and (and (and (and (and (and (and (and (and (and (and (and (and (and (and (and (and (and (and (and (and (and (and (and (and (and (and (and (and (and (and (and (and (and (and (and (and (and (and (and (and (and (and (and (and (and (and (and (and (and (and (and (and (and (and (and (and (and (and (and (and (and (and (and (and (and (and (and (and (and (and (and (and (and (and (and (and (and (and (and (and (and (and (and (and (and (and (and (and (and (and (and (and (and (and (and (and (and (and (and (and (and (and (and (and (and (and (and (and (and (and (and (and (and (and (and (and (and (and (and (and (and (and (and (and (and (and (and (and (and (and (and (and (and (and (and (and (and (and (and (and (and (and (and (and (and (and (and (and (and (and (and (and (and (and (and (and (and (and (and (and (and (and (and (and (and (and (and (and (and (and (and (and (and (and (and (and (and (and (and (and (and (and (and (and (and (and (and (and (and (and (and (and (and (and (and (and (and (and (and (and (and (and (and (and (and (and (and (and (and (and (and (and (and (and (and (and (and (and (and (and (and (and (and (and (and (and (and (and (and (and (and (and (and (and (and (and (and (and (and (and (and (and (and (and (and (and (and (and (and (and (and (and (and (and (and (and (and (and (and (and (and (and (and (and (and (and (and (and (and (and (and (and (and (and (and (and (and (and (and (and (and (and (and (and (and (and (and (and (and (and (and (and (and (and (and (and (and (and (and (and (and (and (and (and (and (and (and (and (and (and (and (and (and (and (and (and (and (and (and (and (and (and (and (and (and (and (and (and (and (and (and (and (and (and (and (and (and (and (and (and (and (and (and (and (and (and (and (and (and (and (or (or ?v_122 P13) ?v_0) (or (or ?v_47 ?v_3) ?v_1)) (or (or ?v_7 ?v_61) ?v_120)) (or (or P18 ?v_92) ?v_110)) (or (or ?v_2 ?v_10) ?v_5)) (or (or P4 ?v_4) P0)) (or (or P3 ?v_0) ?v_42)) (or (or ?v_151 ?v_2) ?v_24)) (or (or ?v_6 ?v_46) ?v_27)) (or (or ?v_3 ?v_4) ?v_5)) (or (or ?v_73 ?v_109) ?v_1)) (or (or ?v_6 ?v_32) ?v_36)) (or (or ?v_34 ?v_29) ?v_78)) (or (or ?v_66 P9) ?v_0)) (or (or ?v_64 ?v_7) P14)) (or (or ?v_8 ?v_15) ?v_54)) (or (or P25 ?v_28) P22)) (or (or ?v_9 ?v_33) ?v_131)) (or (or ?v_13 ?v_93) P24)) (or (or ?v_51 ?v_11) ?v_35)) (or (or ?v_22 ?v_11) ?v_59)) (or (or ?v_19 ?v_13) P21)) (or (or P19 ?v_155) P0)) (or (or ?v_55 ?v_65) ?v_96)) (or (or ?v_102 ?v_15) P29)) (or (or ?v_140 ?v_16) ?v_99)) (or (or ?v_71 P26) P23)) (or (or ?v_123 ?v_17) ?v_37)) (or (or ?v_94 ?v_127) ?v_19)) (or (or ?v_50 ?v_149) ?v_21)) (or (or ?v_22 ?v_3) P25)) (or (or P28 ?v_23) ?v_24)) (or (or ?v_25 ?v_1) ?v_26)) (or (or ?v_2 ?v_27) ?v_43)) (or (or ?v_108 ?v_88) ?v_48)) (or (or ?v_29 ?v_30) ?v_79)) (or (or ?v_100 P27) ?v_62)) (or (or ?v_145 ?v_32) ?v_33)) (or (or P9 ?v_3) P27)) (or (or ?v_72 P8) ?v_148)) (or (or ?v_34 ?v_35) ?v_0)) (or (or ?v_36 ?v_3) ?v_39)) (or (or ?v_38 ?v_70) ?v_39)) (or (or ?v_37 ?v_89) ?v_83)) (or (or ?v_41 ?v_42) ?v_112)) (or (or P27 ?v_17) P25)) (or (or ?v_44 ?v_41) ?v_45)) (or (or ?v_130 ?v_111) ?v_67)) (or (or ?v_46 ?v_52) P10)) (or (or ?v_5 ?v_142) ?v_47)) (or (or ?v_29 ?v_48) ?v_49)) (or (or ?v_69 ?v_95) ?v_50)) (or (or P13 ?v_51) ?v_32)) (or (or P23 ?v_52) P28)) (or (or ?v_53 ?v_58) ?v_43)) (or (or ?v_45 ?v_2) ?v_36)) (or (or ?v_54 ?v_55) ?v_41)) (or (or ?v_54 ?v_56) ?v_57)) (or (or ?v_77 ?v_58) ?v_76)) (or (or P11 ?v_1) ?v_58)) (or (or P3 ?v_60) ?v_50)) (or (or ?v_21 ?v_61) ?v_62)) (or (or ?v_63 ?v_147) ?v_132)) (or (or ?v_116 ?v_46) ?v_64)) (or (or ?v_35 ?v_65) ?v_1)) (or (or ?v_91 ?v_46) ?v_121)) (or (or ?v_124 P26) ?v_74)) (or (or ?v_66 ?v_146) ?v_67)) (or (or ?v_68 ?v_42) ?v_84)) (or (or ?v_70 ?v_71) ?v_72)) (or (or ?v_51 ?v_73) ?v_2)) (or (or ?v_97 ?v_113) ?v_55)) (or (or P11 ?v_24) P4)) (or (or P28 ?v_74) P17)) (or (or ?v_90 ?v_28) ?v_76)) (or (or ?v_57 ?v_50) ?v_3)) (or (or ?v_37 ?v_77) ?v_21)) (or (or ?v_78 ?v_56) ?v_81)) (or (or ?v_10 ?v_80) ?v_22)) (or (or ?v_41 ?v_81) P25)) (or (or ?v_82 ?v_56) ?v_6)) (or (or P20 ?v_83) ?v_84)) (or (or P21 ?v_86) P13)) (or (or ?v_67 ?v_64) ?v_71)) (or (or ?v_5 ?v_101) P10)) (or (or ?v_86 ?v_5) ?v_87)) (or (or ?v_88 ?v_135) ?v_13)) (or (or ?v_103 ?v_91) P27)) (or (or ?v_49 ?v_7) ?v_57)) (or (or ?v_104 ?v_92) P18)) (or (or ?v_93 ?v_45) P5)) (or (or ?v_56 ?v_94) ?v_95)) (or (or ?v_66 ?v_79) ?v_96)) (or (or ?v_91 ?v_80) P11)) (or (or ?v_97 P28) ?v_29)) (or (or P4 P20) ?v_143)) (or (or P27 ?v_98) ?v_114)) (or (or ?v_52 ?v_66) ?v_105)) (or (or ?v_46 ?v_92) ?v_36)) (or (or ?v_13 ?v_101) P17)) (or (or P5 ?v_83) ?v_102)) (or (or ?v_133 ?v_56) ?v_103)) (or (or ?v_16 ?v_10) P26)) (or (or ?v_1 ?v_104) ?v_28)) (or (or ?v_46 ?v_11) ?v_35)) (or (or P3 ?v_105) ?v_17)) (or (or ?v_33 ?v_13) ?v_43)) (or (or ?v_96 ?v_42) ?v_58)) (or (or ?v_28 ?v_57) ?v_106)) (or (or P10 ?v_56) ?v_27)) (or (or ?v_107 ?v_77) ?v_72)) (or (or ?v_68 ?v_58) ?v_119)) (or (or ?v_27 P2) ?v_5)) (or (or ?v_108 ?v_79) ?v_109)) (or (or ?v_1 ?v_92) ?v_91)) (or (or ?v_16 ?v_72) P8)) (or (or ?v_157 ?v_118) ?v_98)) (or (or ?v_110 ?v_63) ?v_101)) (or ?v_153 ?v_69)) (or (or ?v_112 ?v_112) ?v_24)) (or (or P14 ?v_137) ?v_33)) (or (or ?v_113 P6) ?v_16)) (or (or P23 ?v_51) P4)) (or (or ?v_48 ?v_61) ?v_82)) (or (or ?v_91 ?v_81) ?v_15)) (or (or P2 ?v_105) ?v_51)) (or (or ?v_101 ?v_53) ?v_83)) (or (or ?v_91 ?v_34) P4)) (or (or ?v_114 ?v_13) ?v_115)) (or (or ?v_1 ?v_116) P20)) (or (or ?v_39 ?v_46) ?v_44)) (or (or ?v_76 ?v_117) ?v_118)) (or (or ?v_91 ?v_33) ?v_119)) (or (or ?v_80 ?v_93) ?v_88)) (or (or ?v_128 ?v_126) ?v_99)) (or (or ?v_43 ?v_121) ?v_114)) (or (or ?v_63 ?v_88) P29)) (or (or ?v_71 ?v_48) ?v_122)) (or (or ?v_33 ?v_49) ?v_56)) (or (or ?v_81 ?v_8) ?v_30)) (or (or P15 ?v_6) ?v_68)) (or (or ?v_6 ?v_66) ?v_93)) (or (or P14 P4) ?v_123)) (or (or ?v_124 ?v_125) ?v_29)) (or (or ?v_10 ?v_57) ?v_126)) (or (or ?v_110 ?v_35) P29)) (or (or ?v_119 ?v_127) P0)) (or (or ?v_92 ?v_110) ?v_42)) (or (or ?v_111 ?v_127) P29)) (or (or ?v_128 P10) P26)) (or (or ?v_129 ?v_84) ?v_63)) (or (or P3 P10) ?v_81)) (or (or ?v_17 P22) ?v_134)) (or (or ?v_108 ?v_24) ?v_69)) (or (or ?v_62 ?v_94) ?v_104)) (or (or ?v_106 P28) ?v_70)) (or (or ?v_65 ?v_125) ?v_32)) (or (or ?v_33 ?v_130) ?v_101)) (or (or ?v_53 ?v_17) ?v_111)) (or (or ?v_131 ?v_74) ?v_101)) (or (or ?v_9 ?v_139) ?v_110)) (or (or ?v_92 ?v_29) ?v_58)) (or (or ?v_68 P19) ?v_56)) (or (or ?v_61 ?v_154) ?v_51)) (or (or ?v_62 ?v_109) ?v_124)) (or (or ?v_19 ?v_129) ?v_22)) (or (or ?v_29 ?v_98) ?v_64)) (or (or ?v_23 P2) P29)) (or (or ?v_17 P3) ?v_24)) (or (or ?v_27 ?v_24) ?v_144)) (or (or P28 P11) ?v_83)) (or (or ?v_36 ?v_132) ?v_133)) (or (or ?v_5 P29) ?v_93)) (or ?v_136 ?v_102)) (or (or P7 ?v_118) ?v_4)) (or (or ?v_122 ?v_113) ?v_120)) (or (or ?v_48 ?v_45) ?v_70)) (or (or P11 ?v_100) ?v_134)) (or (or ?v_35 ?v_69) ?v_65)) (or (or P7 P1) ?v_129)) (or (or ?v_135 ?v_91) ?v_17)) (or (or ?v_95 ?v_93) ?v_22)) (or (or ?v_102 ?v_27) ?v_103)) (or ?v_158 ?v_66)) (or (or ?v_6 ?v_0) ?v_63)) (or (or ?v_26 ?v_117) ?v_138)) (or (or ?v_17 ?v_128) ?v_68)) (or (or ?v_109 ?v_79) P8)) (or (or ?v_129 ?v_41) ?v_113)) (or (or ?v_115 ?v_5) ?v_21)) (or ?v_136 ?v_35)) (or (or ?v_137 ?v_138) ?v_115)) (or (or P24 ?v_8) ?v_0)) (or (or P2 ?v_114) ?v_106)) (or (or P8 ?v_81) ?v_116)) (or (or ?v_39 ?v_73) ?v_114)) (or (or ?v_92 P25) ?v_139)) (or (or ?v_6 ?v_106) ?v_15)) (or (or P2 ?v_108) (not ?v_32))) (or (or ?v_13 ?v_51) ?v_30)) (or (or P26 ?v_122) ?v_7)) (or (or ?v_140 P23) ?v_124)) (or (or ?v_119 ?v_141) ?v_65)) (or (or ?v_127 ?v_56) ?v_122)) (or (or ?v_108 ?v_116) ?v_63)) (or (or P4 ?v_76) ?v_141)) (or (or ?v_79 ?v_2) P13)) (or (or ?v_100 ?v_98) P12)) (or (or ?v_78 ?v_39) P19)) (or (or ?v_123 ?v_102) ?v_142)) (or (or ?v_126 P7) ?v_61)) (or (or ?v_2 P26) ?v_83)) (or (or ?v_143 P25) ?v_27)) (or (or ?v_25 ?v_89) P12)) (or (or ?v_5 ?v_51) ?v_91)) (or (or ?v_23 ?v_144) ?v_59)) (or (or ?v_138 ?v_11) ?v_111)) (or (or ?v_100 ?v_83) ?v_73)) (or (or ?v_66 ?v_87) ?v_55)) (or (or P7 ?v_44) ?v_66)) (or (or P22 P1) ?v_134)) (or (or ?v_36 ?v_50) ?v_59)) (or (or ?v_116 ?v_133) ?v_61)) (or (or ?v_145 ?v_146) P29)) (or (or ?v_25 ?v_2) ?v_103)) (or (or ?v_69 P28) ?v_91)) (or (or ?v_152 ?v_140) ?v_74)) (or (or ?v_58 ?v_5) ?v_133)) (or (or ?v_67 ?v_119) ?v_122)) (or (or ?v_2 ?v_42) ?v_23)) (or (or ?v_94 ?v_148) P7)) (or (or ?v_91 P9) ?v_33)) (or (or ?v_7 P29) ?v_149)) (or (or ?v_125 ?v_120) ?v_32)) (or (or ?v_30 ?v_97) ?v_50)) (or (or ?v_77 ?v_93) ?v_122)) (or (or ?v_140 ?v_97) P17)) (or (or ?v_10 ?v_4) ?v_148)) (or (or ?v_110 ?v_21) P29)) (or (or ?v_42 P23) ?v_147)) (or (or ?v_77 ?v_70) ?v_80)) (or (or ?v_127 ?v_29) ?v_94)) (or (or ?v_116 ?v_66) P26)) (or (or ?v_121 ?v_83) P12)) (or (or ?v_34 P1) ?v_111)) (or (or P7 ?v_128) ?v_1)) (or (or ?v_150 ?v_59) ?v_80)) (or (or ?v_97 ?v_83) ?v_72)) (or (or ?v_111 ?v_77) ?v_3)) (or (or ?v_16 ?v_117) ?v_5)) (or (or ?v_67 ?v_45) ?v_65)) (or (or ?v_121 ?v_127) ?v_68)) (or (or ?v_149 ?v_80) ?v_65)) (or (or ?v_16 P20) ?v_98)) (or (or ?v_53 ?v_130) ?v_21)) (or (or ?v_71 ?v_79) ?v_45)) (or (or ?v_120 ?v_128) ?v_49)) (or (or ?v_151 ?v_58) ?v_130)) (or (or ?v_72 ?v_132) ?v_26)) (or (or ?v_126 ?v_152) ?v_132)) (or (or ?v_96 ?v_59) ?v_77)) (or (or ?v_69 ?v_38) ?v_82)) (or (or ?v_119 ?v_21) P4)) (or (or P0 ?v_1) P19)) (or (or ?v_23 ?v_82) ?v_121)) (or (or P2 ?v_17) ?v_126)) (or (or ?v_71 ?v_82) P22)) (or (or ?v_94 ?v_149) ?v_69)) (or (or P15 P7) P24)) (or (or ?v_0 ?v_38) ?v_52)) (or (or P6 ?v_68) ?v_47)) (or (or ?v_5 ?v_83) ?v_11)) (or (or ?v_23 ?v_67) ?v_114)) (or (or ?v_99 ?v_37) ?v_38)) (or (or ?v_123 ?v_108) P28)) (or (or ?v_33 ?v_78) ?v_46)) (or (or ?v_93 ?v_115) ?v_137)) (or (or ?v_71 ?v_138) ?v_139)) (or (or P0 P7) P8)) (or (or ?v_36 P22) ?v_144)) (or (or ?v_27 ?v_30) ?v_53)) (or (or ?v_42 ?v_115) ?v_150)) (or (or ?v_86 ?v_148) ?v_140)) (or (or P1 ?v_44) ?v_91)) (or (or ?v_98 ?v_87) ?v_64)) (or (or ?v_147 P11) ?v_50)) (or (or ?v_118 ?v_118) ?v_74)) (or (or ?v_33 ?v_122) ?v_150)) (or (or ?v_4 ?v_69) ?v_56)) (or (or ?v_59 ?v_56) P2)) (or (or P1 ?v_108) ?v_94)) (or ?v_153 ?v_130)) (or (or ?v_6 ?v_109) ?v_52)) (or (or P7 ?v_83) ?v_154)) (or (or ?v_76 ?v_4) ?v_109)) (or (or ?v_155 ?v_76) ?v_147)) (or (or ?v_22 ?v_57) ?v_98)) (or (or ?v_62 ?v_122) P14)) (or (or ?v_103 ?v_73) ?v_107)) (or (or ?v_97 ?v_156) ?v_108)) (or (or ?v_81 ?v_145) ?v_21)) (or (or ?v_147 ?v_100) P0)) (or (or P6 ?v_54) ?v_9)) (or (or ?v_138 ?v_7) ?v_52)) (or (or ?v_11 ?v_95) P23)) (or (or ?v_124 ?v_36) ?v_42)) (or (or ?v_44 ?v_7) P9)) (or (or P22 P6) ?v_88)) (or (or P26 ?v_156) ?v_108)) (or (or ?v_79 P17) ?v_43)) (or (or ?v_62 ?v_36) ?v_68)) (or (or ?v_36 ?v_21) ?v_141)) (or (or ?v_39 ?v_24) P24)) (or (or P1 P3) ?v_157)) (or (or P6 ?v_2) ?v_64)) (or (or P16 ?v_46) ?v_91)) (or (or ?v_17 ?v_43) ?v_47)) (or (or ?v_139 ?v_134) ?v_152)) (or (or ?v_59 ?v_154) P16)) (or (or ?v_62 ?v_24) ?v_5)) (or (or ?v_106 ?v_28) ?v_47)) (or (or ?v_8 ?v_127) ?v_6)) (or (or P2 ?v_42) ?v_28)) (or (or ?v_80 ?v_105) ?v_45)) (or (or ?v_107 ?v_58) ?v_41)) (or (or ?v_135 ?v_103) ?v_91)) (or (or P15 ?v_140) ?v_68)) (or (or ?v_73 ?v_2) ?v_7)) (or (or ?v_126 P13) ?v_102)) (or (or ?v_41 ?v_119) ?v_97)) (or (or ?v_15 ?v_53) P27)) (or (or ?v_118 ?v_3) ?v_130)) (or (or P28 ?v_94) ?v_97)) (or (or P29 ?v_84) ?v_50)) (or (or ?v_65 ?v_38) ?v_10)) (or (or ?v_87 ?v_58) ?v_16)) (or (or ?v_135 P1) ?v_116)) (or (or ?v_145 ?v_80) ?v_124)) (or (or P0 ?v_30) ?v_127)) (or (or ?v_1 P18) ?v_3)) (or (or ?v_74 ?v_36) ?v_76)) (or (or ?v_131 ?v_4) ?v_130)) (or (or P24 ?v_154) ?v_63)) (or (or ?v_57 P12) ?v_92)) (or (or ?v_127 P15) P23)) (or (or ?v_104 ?v_151) P10)) (or (or ?v_157 ?v_81) ?v_122)) (or (or ?v_22 ?v_150) ?v_52)) (or (or ?v_100 ?v_145) ?v_57)) (or (or ?v_5 ?v_4) ?v_60)) (or (or ?v_139 ?v_71) ?v_68)) (or (or P15 P11) ?v_70)) (or (or P16 ?v_143) ?v_98)) (or (or ?v_5 ?v_138) ?v_54)) (or (or ?v_78 ?v_156) P24)) (or (or P19 ?v_38) ?v_25)) (or (or ?v_97 ?v_56) ?v_43)) (or (or ?v_28 ?v_32) P12)) (or (or ?v_71 ?v_73) ?v_95)) (or (or ?v_100 ?v_100) P0)) (or (or ?v_143 ?v_66) ?v_120)) (or (or ?v_11 P15) ?v_32)) (or (or ?v_4 ?v_52) P22)) (or (or ?v_48 ?v_55) ?v_81)) (or (or ?v_35 ?v_52) P13)) (or (or ?v_60 ?v_73) ?v_89)) (or (or ?v_130 ?v_141) ?v_50)) (or (or ?v_69 ?v_102) ?v_32)) (or (or P14 P17) ?v_155)) (or (or ?v_148 ?v_61) ?v_102)) (or (or ?v_112 ?v_38) ?v_37)) (or (or ?v_0 ?v_59) ?v_92)) (or (or P27 ?v_69) ?v_148)) (or (or ?v_110 P28) ?v_13)) (or (or ?v_98 ?v_36) P3)) (or (or ?v_128 ?v_90) ?v_34)) (or (or ?v_65 ?v_58) ?v_29)) (or (or ?v_114 ?v_38) ?v_41)) (or (or P29 P29) ?v_8)) (or (or ?v_58 ?v_64) ?v_113)) (or (or ?v_157 ?v_123) ?v_34)) (or (or ?v_71 ?v_60) ?v_133)) (or (or P5 ?v_10) ?v_78)) (or (or ?v_15 ?v_132) ?v_79)) (or (or ?v_143 P13) ?v_102)) (or (or ?v_123 ?v_145) ?v_148)) (or (or ?v_4 ?v_117) P19)) (or (or ?v_139 ?v_157) ?v_37)) (or (or ?v_118 P17) ?v_73)) (or (or ?v_51 P1) ?v_32)) (or (or ?v_127 P23) ?v_89)) (or (or ?v_17 ?v_89) ?v_104)) (or (or ?v_68 ?v_50) ?v_8)) (or (or ?v_68 ?v_116) ?v_28)) (or (or P17 P12) ?v_63)) (or (or ?v_118 ?v_74) ?v_65)) (or (or ?v_7 ?v_124) ?v_90)) (or (or P6 ?v_116) ?v_76)) (or (or ?v_3 ?v_119) ?v_138)) (or (or ?v_30 ?v_88) ?v_90)) (or (or ?v_43 ?v_36) P24)) (or (or ?v_71 ?v_141) ?v_103)) (or (or ?v_1 ?v_82) ?v_59)) (or (or ?v_108 ?v_66) P18)) (or (or ?v_78 ?v_79) P7)) (or (or ?v_26 ?v_17) ?v_95)) (or ?v_158 ?v_37)) (or (or ?v_30 ?v_119) ?v_113)) (or (or ?v_46 ?v_112) ?v_8)) (or (or (not P0) ?v_30) P12)) (or (or ?v_121 ?v_22) ?v_149)) (or (or ?v_110 ?v_106) P5)) (or (or ?v_83 ?v_26) ?v_68)) (or (or ?v_47 ?v_36) ?v_118)) (or (or ?v_43 ?v_63) ?v_131)) (or (or ?v_105 ?v_152) ?v_8)) (or (or ?v_146 P21) ?v_83)) (or (or ?v_103 ?v_36) ?v_122)) (or (or ?v_28 ?v_105) P5)) (or (or ?v_122 ?v_16) ?v_46)) (or (or ?v_30 ?v_102) ?v_35)) (or (or ?v_53 ?v_9) P18)) (or (or P8 ?v_36) ?v_2)) (or (or ?v_132 P13) ?v_105)) (or (or ?v_10 P12) ?v_71)) (or (or P28 ?v_29) ?v_72)) (or (or ?v_46 ?v_22) ?v_111)) (or (or ?v_64 ?v_79) ?v_42)) (or (or ?v_116 ?v_56) ?v_33)) (or (or ?v_128 ?v_155) P7)) (or (or ?v_25 ?v_115) ?v_16)) (or (or ?v_36 ?v_48) P9)) (or (or ?v_28 ?v_65) ?v_137)) (or (or ?v_109 P12) ?v_41)) (or (or ?v_148 P6) ?v_114)) (or (or ?v_112 ?v_103) ?v_80)) (or (or ?v_138 ?v_100) ?v_5)) (or (or ?v_98 ?v_150) ?v_29)) (or (or ?v_87 ?v_56) ?v_27)) (or (or ?v_49 ?v_98) P21)) (or (or ?v_99 ?v_56) P6)) (or (or ?v_121 ?v_79) ?v_144)) (or (or ?v_7 P8) ?v_93)) (or (or ?v_84 ?v_82) ?v_148)) (or (or ?v_4 ?v_58) ?v_39)) (or (or P11 P5) P18)) (or (or ?v_34 ?v_65) ?v_11)) (or (or P25 P18) ?v_43)) (or (or ?v_78 ?v_95) ?v_42)) (or (or ?v_9 ?v_47) ?v_65)))))))))))))))))))))))))))
(check-sat)
(exit)
